0 3928
2401 3819
4802 3725
7203 3649
9604 3589
12005 3532
14406 3484
16807 3447
19208 3390
21609 3364
24010 3337
26411 3301
28812 3277
31213 3240
33614 3227
36015 3208
38416 3196
40817 3190
43218 3182
